&control
calculation = 'bands'
prefix = 'GaAs'
pseudo_dir = '../pseudo/SSSP/'
wf_collect = .true.
/
&system
ibrav = 2
celldm(1) = 10.6867
nat = 2
ntyp = 2
ecutwfc = 60
ecutrho = 244
nbnd = 16
/
&electrons
mixing_mode = 'plain'
mixing_beta = 0.7
conv_thr = 1.0d-8
diago_david_ndim = 4
/
ATOMIC_SPECIES
Ga 69.723 Ga.pbe-dn-kjpaw_psl.1.0.0.UPF
As 74.921595 As.pbe-n-rrkjus_psl.0.2.UPF
ATOMIC_POSITIONS
Ga 0.00 0.00 0.00
As 0.25 0.25 0.25
K_POINTS {crystal_b}
5
 0.00  0.50  0.00  40 !L
 0.00  0.00  0.00  60 !G
-0.50  0.00 -0.50  20 !X
-0.375 0.00 -0.675 60 !K,U
 0.00  0.00 -1.00  40 !G
