&bands
   outdir = './',
   prefix='GaAs',
   filband='bands.dat',
   lsym=.true.
/
