&BANDS
  prefix = 'TMD'
  outdir = '.'
  filband = 'bands.dat'
/

