 &CONTROL
                 calculation = 'scf'
				restart_mode = 'from_scratch'
                      outdir = './'
                  pseudo_dir = '../pseudo/SG15/'
                      prefix = 'TMD'
				  wf_collect = .true.
                   verbosity = 'high'
 /
 &SYSTEM
                       ibrav = 0
                         nat = 3
                        ntyp = 2
                     ecutwfc = 40
                       nosym = .false.
                 occupations = 'fixed'
                    smearing = 'gaussian'
                     degauss = 1.0D-09
                       nspin = 4
                    noncolin = .true.
                    lspinorb = .true.
   constrained_magnetization ='none'
                        nbnd = 72
             assume_isolated = "2D"
 /
 &ELECTRONS
                    conv_thr = 1.0D-10
            electron_maxstep = 200
                 startingwfc = 'atomic+random'
              diago_full_acc = .true.
                 mixing_mode = 'local-TF'
                 mixing_beta = 0.7D0
             diagonalization = 'david'
 /

ATOMIC_SPECIES
   Mo     95.9400    Mo_ONCV_PBE_FR-1.0.upf
   S      32.0590    S_ONCV_PBE_FR-1.1.upf 

CELL_PARAMETERS {angstrom} 
     3.1833591081425840    0.0000000000000000    0.0000000000000000
    -1.5916795540712920    2.7568698570200514    0.0000000000000000
     0.0000000000000000    0.0000000000000000   23.1412739422750491
 
ATOMIC_POSITIONS {crystal}
Mo  0.33333333333333  0.66666666666666  0.5000000069426349
S   0.66666666666666  0.33333333333333  0.5675101645314301
S   0.66666666666666  0.33333333333333  0.4324898354685699
 
K_POINTS {automatic}
12 12 1 0 0 0
