&BANDS
  prefix = 'silicon'
  outdir = '.'
  filband = 'bands.dat'
/

