 &CONTROL
                 calculation = 'scf'
				restart_mode = 'from_scratch'
                      outdir = './'
                  pseudo_dir = '../pseudo/SSSP/'
                      prefix = 'silicon'
				  wf_collect = .true.
                   verbosity = 'high'
 /
 &SYSTEM
                       ibrav = 2
                   celldm(1) = 10.26
                         nat = 2
                        ntyp = 1
                     ecutwfc = 50
                     ecutrho = 400
                        nbnd = 8
               !  occupations = 'smearing',
               !     smearing = 'gaussian',
               !      degauss = 0.005
 /
 &ELECTRONS
                    conv_thr = 1.0D-10
            electron_maxstep = 100
                 mixing_beta = 0.6D0
 /

ATOMIC_SPECIES
  Si 28.086 Si.pbe-n-rrkjus_psl.1.0.0.UPF

ATOMIC_POSITIONS (alat)
Si 0.0 0.0 0.0
Si 0.25 0.25 0.25
 
K_POINTS {automatic}
6 6 6 0 0 0
